Au Pt Ir  H                             
   1.00000000000000     
     5.5578593001262639    0.0000000000000000    0.0000000000000000
     2.7789296500631320    4.8132473445689445    0.0000000000000000
     0.0000000000000000    0.0000000000000000   30.8069596737456877
   Au   Pt   Ir   H 
     1    14     1     1
Selective dynamics
Direct
  0.0000000000000000  0.0000000000000000  0.3895223717979093   F   F   F
  0.5000000000000000  0.0000000000000000  0.3895223717979093   F   F   F
  0.0000000000000000  0.5000000000000000  0.3895223717979093   F   F   F
  0.5000000000000000  0.5000000000000000  0.3895223717979093   F   F   F
  0.1665288320232108  0.1665288320232108  0.4654248686561999   T   T   T
  0.6669423359535642  0.1665288320232108  0.4654248686561999   T   T   T
  0.1665288320232108  0.6669423359535642  0.4654248686561999   T   T   T
  0.6666666666666643  0.6666666666666643  0.4642673738576804   T   T   T
  0.3333333333333357  0.3333333333333357  0.5399449170680768   T   T   T
  0.8339686944905651  0.8339686944905651  0.5400519943594517   T   T   T
  0.3320626110188769  0.8339686944905651  0.5400519943594517   T   T   T
  0.0000000000000000  0.0000000000000000  0.6190435196784136   T   T   T
  0.5004872778518816  0.9990254442962438  0.6149891361123849   T   T   T
  0.9990254442962438  0.5004872778518816  0.6149891361123849   T   T   T
  0.5004872778518816  0.5004872778518816  0.6149891361123849   T   T   T
  0.8339686944905651  0.3320626110188769  0.5400519943594517   T   T   T
  0.0000000000000000  0.0000000000000000  0.6695343571046237   T   T   T
 
  0.00000000E+00  0.00000000E+00  0.00000000E+00
  0.00000000E+00  0.00000000E+00  0.00000000E+00
  0.00000000E+00  0.00000000E+00  0.00000000E+00
  0.00000000E+00  0.00000000E+00  0.00000000E+00
  0.00000000E+00  0.00000000E+00  0.00000000E+00
  0.00000000E+00  0.00000000E+00  0.00000000E+00
  0.00000000E+00  0.00000000E+00  0.00000000E+00
  0.00000000E+00  0.00000000E+00  0.00000000E+00
  0.00000000E+00  0.00000000E+00  0.00000000E+00
  0.00000000E+00  0.00000000E+00  0.00000000E+00
  0.00000000E+00  0.00000000E+00  0.00000000E+00
  0.00000000E+00  0.00000000E+00  0.00000000E+00
  0.00000000E+00  0.00000000E+00  0.00000000E+00
  0.00000000E+00  0.00000000E+00  0.00000000E+00
  0.00000000E+00  0.00000000E+00  0.00000000E+00
  0.00000000E+00  0.00000000E+00  0.00000000E+00
  0.00000000E+00  0.00000000E+00  0.00000000E+00
