Ir Pt Au 
 1.0000000000000000
     5.5578593001262639    0.0000000000000000    0.0000000000000000
     2.7789296500631320    4.8132473445689445    0.0000000000000000
     0.0000000000000000    0.0000000000000000   30.8069596737456877
   1  14   1
Selective dynamics
Cartesian
  0.0000000000000000  0.0000000000000000 11.9999999999999662   F   F   F
  2.7789296500631320  0.0000000000000000 11.9999999999999662   F   F   F
  1.3894648250315660  2.4066236722844723 11.9999999999999662   F   F   F
  4.1683944750946980  2.4066236722844723 11.9999999999999662   F   F   F
  1.3894648250315462  0.8022078907614794 14.3155444112123185   T   T   T
  4.1683944750946784  0.8022078907614794 14.3155444112123185   T   T   T
  2.7789296500631124  3.2088315630459516 14.3155444112123185   T   T   T
  5.5578593001262444  3.2088315630459516 14.3155444112123185   T   T   T
  5.5578593001262835  1.6044157815229929 16.6112039942435210   T   T   T
  2.7789296500631515  1.6044157815229929 16.6112039942435210   T   T   T
  6.9473241251578486  4.0110394538074656 16.6112039942435210   T   T   T
  4.1683944750947175  4.0110394538074656 16.6112039942435210   T   T   T
  0.0000000000000000  0.0000000000000000 18.9419804846084929   T   T   T
  2.7789296500631320  0.0000000000000000 18.9419804846084929   T   T   T
  4.1683944750946980  2.4066236722844723 18.9419804846084929   T   T   T
  1.3894648250315660  2.4066236722844723 18.9419804846084929   T   T   T
