Au Pt Ir  H 
 1.0000000000000000
     5.5578593001262639    0.0000000000000000    0.0000000000000000
     2.7789296500631320    4.8132473445689445    0.0000000000000000
     0.0000000000000000    0.0000000000000000   30.8069596737456877
   1  14   1   1
Selective dynamics
Cartesian
  0.0000000000000000  0.0000000000000000 11.9999999999999662   F   F   F
  2.7789296500631320  0.0000000000000000 11.9999999999999662   F   F   F
  1.3894648250315660  2.4066236722844723 11.9999999999999662   F   F   F
  4.1683944750946980  2.4066236722844723 11.9999999999999662   F   F   F
  1.3883157266990733  0.8015444585299007 14.3383251598499957   T   T   T
  4.1695435734271520  0.8015444585299007 14.3383251598499957   T   T   T
  2.7789296500631124  3.2101584275091093 14.3383251598499957   T   T   T
  5.5578593001262444  3.2088315630459516 14.3026662642694085   T   T   T
  2.7789296500631515  1.6044157815229929 16.6340612861601329   T   T   T
  6.9526209970328248  4.0140976042103453 16.6373600119575471   T   T   T
  4.1630976032197440  4.0140976042103453 16.6373600119575471   T   T   T
  0.0000000000000000  0.0000000000000000 19.0708487470265311   T   T   T
  2.7789296500631306 -0.0046907776532429 18.9459455160059278   T   T   T
  1.3854024924203527  2.4089690611110925 18.9459455160059278   T   T   T
  4.1724568077059088  2.4089690611110925 18.9459455160059278   T   T   T
  5.5578593001262844  1.5982994807172344 16.6373600119575471   T   T   T
  0.0000000000000000  0.0000000000000000 20.6263179395094660   T   T   T
