Pt  H                                   
   1.00000000000000     
     5.5578593001262639    0.0000000000000000    0.0000000000000000
     2.7789296500631320    4.8132473445689445    0.0000000000000000
     0.0000000000000000    0.0000000000000000   30.8069596737456877
   Pt   H 
    16     1
Selective dynamics
Direct
  0.0000000000000000  0.0000000000000000  0.3895223717979093   F   F   F
  0.5000000000000000  0.0000000000000000  0.3895223717979093   F   F   F
  0.0000000000000000  0.5000000000000000  0.3895223717979093   F   F   F
  0.5000000000000000  0.5000000000000000  0.3895223717979093   F   F   F
  0.1665288320232136  0.1665288320232136  0.4654248686562019   T   T   T
  0.6669423359535658  0.1665288320232136  0.4654248686562019   T   T   T
  0.1665288320232136  0.6669423359535658  0.4654248686562019   T   T   T
  0.6666666666666643  0.6666666666666643  0.4642673738576816   T   T   T
  0.8339686944905658  0.3320626110188758  0.5400519943594512   T   T   T
  0.3333333333333357  0.3333333333333357  0.5399449170680746   T   T   T
  0.8339686944905658  0.8339686944905658  0.5400519943594512   T   T   T
  0.3320626110188758  0.8339686944905658  0.5400519943594512   T   T   T
 -0.0000000000000000  0.0000000000000000  0.6190435196784152   T   T   T
  0.5004872778518783 -0.0009745557037570  0.6149891361123845   T   T   T
 -0.0009745557037570  0.5004872778518783  0.6149891361123845   T   T   T
  0.5004872778518783  0.5004872778518783  0.6149891361123845   T   T   T
 -0.0000000000000000  0.0000000000000000  0.6695343571046263   T   T   T
 
  0.00000000E+00  0.00000000E+00  0.00000000E+00
  0.00000000E+00  0.00000000E+00  0.00000000E+00
  0.00000000E+00  0.00000000E+00  0.00000000E+00
  0.00000000E+00  0.00000000E+00  0.00000000E+00
  0.00000000E+00  0.00000000E+00  0.00000000E+00
  0.00000000E+00  0.00000000E+00  0.00000000E+00
  0.00000000E+00  0.00000000E+00  0.00000000E+00
  0.00000000E+00  0.00000000E+00  0.00000000E+00
  0.00000000E+00  0.00000000E+00  0.00000000E+00
  0.00000000E+00  0.00000000E+00  0.00000000E+00
  0.00000000E+00  0.00000000E+00  0.00000000E+00
  0.00000000E+00  0.00000000E+00  0.00000000E+00
  0.00000000E+00  0.00000000E+00  0.00000000E+00
  0.00000000E+00  0.00000000E+00  0.00000000E+00
  0.00000000E+00  0.00000000E+00  0.00000000E+00
  0.00000000E+00  0.00000000E+00  0.00000000E+00
  0.00000000E+00  0.00000000E+00  0.00000000E+00
