Au Pt Ir                                
   1.00000000000000     
     5.5578593001262639    0.0000000000000000    0.0000000000000000
     2.7789296500631320    4.8132473445689445    0.0000000000000000
     0.0000000000000000    0.0000000000000000   30.8069596737456877
   Au   Pt   Ir
     1    14     1
Selective dynamics
Direct
  0.0000000000000000  0.0000000000000000  0.3895223717979093   F   F   F
  0.5000000000000000  0.0000000000000000  0.3895223717979093   F   F   F
  0.0000000000000000  0.5000000000000000  0.3895223717979093   F   F   F
  0.5000000000000000  0.5000000000000000  0.3895223717979093   F   F   F
  0.1666666666666643  0.1666666666666643  0.4646854010528116   T   T   T
  0.6666666666666643  0.1666666666666643  0.4646854010528116   T   T   T
  0.1666666666666643  0.6666666666666643  0.4646854010528116   T   T   T
  0.6666666666666643  0.6666666666666643  0.4646854010528116   T   T   T
  0.8333333333333357  0.3333333333333357  0.5392029648547236   T   T   T
  0.3333333333333357  0.3333333333333357  0.5392029648547236   T   T   T
  0.8333333333333357  0.8333333333333357  0.5392029648547236   T   T   T
  0.0000000000000000  0.0000000000000000  0.6148604304095358   T   T   T
  0.5000000000000000  0.0000000000000000  0.6148604304095358   T   T   T
  0.0000000000000000  0.5000000000000000  0.6148604304095358   T   T   T
  0.5000000000000000  0.5000000000000000  0.6148604304095358   T   T   T
  0.3333333333333357  0.8333333333333357  0.5392029648547236   T   T   T
 
  0.00000000E+00  0.00000000E+00  0.00000000E+00
  0.00000000E+00  0.00000000E+00  0.00000000E+00
  0.00000000E+00  0.00000000E+00  0.00000000E+00
  0.00000000E+00  0.00000000E+00  0.00000000E+00
  0.00000000E+00  0.00000000E+00  0.00000000E+00
  0.00000000E+00  0.00000000E+00  0.00000000E+00
  0.00000000E+00  0.00000000E+00  0.00000000E+00
  0.00000000E+00  0.00000000E+00  0.00000000E+00
  0.00000000E+00  0.00000000E+00  0.00000000E+00
  0.00000000E+00  0.00000000E+00  0.00000000E+00
  0.00000000E+00  0.00000000E+00  0.00000000E+00
  0.00000000E+00  0.00000000E+00  0.00000000E+00
  0.00000000E+00  0.00000000E+00  0.00000000E+00
  0.00000000E+00  0.00000000E+00  0.00000000E+00
  0.00000000E+00  0.00000000E+00  0.00000000E+00
  0.00000000E+00  0.00000000E+00  0.00000000E+00
