Pt  H 
 1.0000000000000000
     5.5578593001262639    0.0000000000000000    0.0000000000000000
     2.7789296500631320    4.8132473445689445    0.0000000000000000
     0.0000000000000000    0.0000000000000000   30.8069596737456877
  16   1
Selective dynamics
Cartesian
  0.0000000000000000  0.0000000000000000 12.0000000000000000   F   F   F
  2.7789296500631320  0.0000000000000000 12.0000000000000000   F   F   F
  1.3894648250315660  2.4066236722844723 12.0000000000000000   F   F   F
  4.1683944750946980  2.4066236722844723 12.0000000000000000   F   F   F
  1.3894648250315660  0.8022078907614907 14.2689865579152304   T   T   T
  4.1683944750946980  0.8022078907614907 14.2689865579152304   T   T   T
  2.7789296500631320  3.2088315630459627 14.2689865579152304   T   T   T
  5.5578593001262639  3.2088315630459627 14.2689865579152304   T   T   T
  0.0000000000000000  1.6044157815229814 16.5379731158304608   T   T   T
  2.7789296500631320  1.6044157815229814 16.5379731158304608   T   T   T
  1.3894648250315658  4.0110394538074532 16.5379731158304608   T   T   T
  4.1683944750946980  4.0110394538074532 16.5379731158304608   T   T   T
  0.0000000000000000  0.0000000000000000 18.8069596737456877   T   T   T
  2.7789296500631320  0.0000000000000000 18.8069596737456877   T   T   T
  1.3894648250315660  2.4066236722844723 18.8069596737456877   T   T   T
  4.1683944750946980  2.4066236722844723 18.8069596737456877   T   T   T
  0.0000000000000000  0.0000000000000000 20.6069596737456884   T   T   T
