INCAR created by Atomic Simulation Environment
 ENCUT = 350.000000
 EDIFF = 1.00e-05
 EDIFFG = -5.00e-02
 GGA = PE
 IBRION = 2
 IDIPOL = 3
 ISPIN = 1
 NSW = 0
 LCHARG = .FALSE.
 LWAVE = .FALSE.
