Ir Pt Au  O  H 
 1.0000000000000000
     5.5437171645025325    0.0000000000000000    0.0000000000000000
     2.7718585822512662    4.8009998958550284    0.0000000000000000
     0.0000000000000000    0.0000000000000000   26.7896391656700033
   1  14   1   1   1
Selective dynamics
Cartesian
  0.0000000000000000  0.0000000000000000  9.9999999999999609   F   F   F
  2.7718585822512662  0.0000000000000000  9.9999999999999609   F   F   F
  1.3859292911256331  2.4004999479275142  9.9999999999999609   F   F   F
  4.1577878733768996  2.4004999479275142  9.9999999999999609   F   F   F
  1.3859292911256134  0.8001666493091600 12.2632130552233853   F   F   F
  4.1577878733768801  0.8001666493091600 12.2632130552233853   F   F   F
  2.7718585822512467  3.2006665972366743 12.2632130552233853   F   F   F
  5.5437171645025130  3.2006665972366743 12.2632130552233853   F   F   F
  5.5546461182926370  1.6302324167719053 14.5411861043651811   T   T   T
  2.7609296284611973  1.6302324167719053 14.5411861043651811   T   T   T
  6.9296464556281840  4.0864021901388856 14.7071852105308221   T   T   T
  4.1577878733769200  4.0265455051198265 14.5523390388952656   T   T   T
 -0.0130190163047267 -0.0854799887060147 16.9937274780293599   T   T   T
  1.3859292911256333  2.3481550860000344 16.8510742033321748   T   T   T
  4.1577878733769005  2.3176616171321771 16.8285025796313121   T   T   T
  2.7848775985559948 -0.0854799887060147 16.9937274780293599   T   T   T
  1.3859292911256329  0.1201760655942823 18.6360363878791055   T   T   T
  1.3859292911256325 -0.7575432165977728 19.0857023297497328   T   T   T
